Route #1: 9 21 29 31 34 40 41 17 45 
Route #2: 23 6 43 26 14 
Route #3: 28 20 27 1 15 8 11 
Route #4: 38 13 30 37 2 4 
Route #5: 5 32 3 10 44 25 18 35 
Route #6: 12 42 16 24 33 19 
Route #7: 39 7 22 36 
cost 1020.01
execution_time 14.087
